DIMENSION: 120
1
60
24
111
96
90
54
8
70
116
34
40
72
7
38
103
23
11
9
119
4
26
71
47
55
89
48
102
101
110
112
6
84
36
35
10
104
106
99
62
37
67
83
73
57
114
80
3
82
27
53
5
63
39
77
95
12
97
88
64
109
21
93
2
115
51
13
91
68
79
58
33
100
52
25
117
19
108
107
18
85
31
66
22
81
94
86
75
46
20
69
43
65
113
50
17
118
49
42
98
41
56
44
87
14
74
105
15
59
30
92
78
45
28
32
120
16
61
29
76
